00:00.0 clingo version 5.5.1
00:00.0 Reading from ...ols/../encodings/CTW_nat_optimal_V1.lp ...
29:59.876 UNKNOWN
30:00.20 
30:00.24 TIME LIMIT   : 1
30:00.70 Models       : 0+
30:00.70 Calls        : 1
30:00.71 Time         : 1800.117s (Solving: 0.00s 1st Model: 0.00s Unsat: 0.00s)
30:00.73 CPU Time     : 114.338s
